p edge 75 278
e 1 9
e 1 15
e 1 25
e 1 36
e 1 37
e 1 39
e 1 43
e 1 54
e 2 14
e 2 23
e 2 35
e 2 38
e 2 41
e 2 47
e 2 67
e 3 17
e 3 20
e 3 42
e 3 46
e 3 67
e 4 9
e 4 18
e 4 21
e 4 23
e 4 29
e 4 53
e 4 56
e 4 64
e 4 75
e 5 11
e 5 21
e 5 31
e 5 37
e 5 38
e 6 8
e 6 14
e 6 21
e 6 24
e 6 34
e 6 54
e 6 62
e 6 72
e 7 10
e 7 20
e 7 28
e 7 30
e 7 43
e 7 47
e 7 51
e 7 52
e 7 53
e 7 54
e 7 58
e 7 72
e 8 24
e 8 33
e 8 35
e 8 41
e 8 43
e 8 49
e 8 52
e 8 53
e 8 58
e 8 60
e 8 72
e 9 30
e 9 32
e 9 33
e 9 51
e 9 71
e 9 72
e 10 22
e 10 23
e 10 25
e 10 33
e 10 39
e 10 42
e 10 46
e 10 66
e 10 71
e 11 13
e 11 18
e 11 32
e 11 47
e 11 59
e 12 14
e 12 17
e 12 53
e 12 58
e 12 73
e 13 29
e 13 31
e 13 34
e 13 36
e 13 44
e 13 50
e 13 59
e 13 70
e 13 75
e 14 20
e 14 22
e 14 28
e 14 45
e 14 60
e 14 62
e 14 69
e 15 22
e 15 31
e 15 52
e 15 53
e 16 18
e 16 25
e 16 27
e 16 43
e 16 60
e 16 65
e 16 75
e 17 28
e 17 46
e 17 56
e 17 62
e 17 67
e 18 32
e 18 64
e 18 67
e 19 32
e 19 33
e 19 41
e 19 57
e 20 47
e 20 48
e 20 51
e 20 55
e 21 38
e 21 58
e 21 65
e 21 67
e 22 29
e 22 61
e 22 72
e 23 41
e 23 61
e 23 64
e 23 68
e 23 70
e 23 73
e 23 75
e 24 27
e 24 32
e 24 40
e 24 47
e 24 58
e 24 62
e 24 70
e 24 72
e 25 35
e 25 38
e 25 44
e 25 46
e 25 58
e 25 59
e 25 63
e 25 69
e 25 72
e 26 30
e 26 43
e 26 62
e 26 71
e 27 29
e 27 50
e 27 51
e 27 52
e 27 54
e 28 33
e 28 69
e 29 32
e 29 33
e 29 34
e 29 38
e 29 48
e 29 49
e 29 50
e 29 51
e 29 70
e 30 50
e 30 61
e 30 66
e 31 44
e 31 47
e 31 52
e 31 55
e 31 66
e 32 35
e 32 53
e 32 66
e 32 74
e 33 36
e 33 60
e 34 41
e 34 42
e 34 57
e 34 58
e 34 62
e 34 74
e 35 51
e 35 69
e 36 42
e 36 54
e 37 42
e 37 56
e 37 63
e 37 65
e 38 55
e 39 55
e 39 61
e 40 56
e 40 75
e 41 44
e 42 44
e 42 50
e 42 52
e 42 56
e 42 62
e 42 72
e 42 75
e 43 63
e 43 65
e 43 66
e 43 71
e 44 55
e 44 63
e 44 74
e 45 54
e 46 53
e 46 56
e 46 64
e 47 53
e 47 56
e 47 72
e 47 75
e 48 51
e 48 68
e 49 59
e 49 73
e 50 74
e 51 53
e 51 63
e 51 71
e 52 69
e 52 75
e 54 70
e 55 63
e 55 73
e 56 61
e 56 62
e 56 65
e 56 72
e 57 73
e 58 60
e 59 65
e 59 67
e 61 65
e 61 68
e 61 73
e 61 75
e 62 68
e 62 73
e 63 68
e 63 74
e 64 66
e 64 68
e 64 71
e 65 66
e 65 72
e 66 68
e 68 73
e 73 74
e 74 75
